00:00.0 clingo version 5.5.1
00:00.0 Reading from ...ols/../encodings/CTW_nat_optimal_V1.lp ...
30:00.431 UNKNOWN
30:00.479 
30:00.479 TIME LIMIT   : 1
30:00.480 Models       : 0+
30:00.480 Calls        : 1
30:00.480 Time         : 1800.129s (Solving: 0.00s 1st Model: 0.00s Unsat: 0.00s)
30:00.481 CPU Time     : 112.518s
